p cnf 999 729
155 0
284 0
333 0
346 0
361 0
398 0
477 0
491 0
522 0
551 0
578 0
627 0
669 0
714 0
763 0
866 0
875 0
889 0
925 0
939 0
967 0
972 0
996 0
-151 0
-152 0
-153 0
-154 0
-156 0
-157 0
-158 0
-159 0
-281 0
-282 0
-283 0
-285 0
-286 0
-287 0
-288 0
-289 0
-331 0
-332 0
-334 0
-335 0
-336 0
-337 0
-338 0
-339 0
-341 0
-342 0
-343 0
-344 0
-345 0
-347 0
-348 0
-349 0
-362 0
-363 0
-364 0
-365 0
-366 0
-367 0
-368 0
-369 0
-391 0
-392 0
-393 0
-394 0
-395 0
-396 0
-397 0
-399 0
-471 0
-472 0
-473 0
-474 0
-475 0
-476 0
-478 0
-479 0
-492 0
-493 0
-494 0
-495 0
-496 0
-497 0
-498 0
-499 0
-521 0
-523 0
-524 0
-525 0
-526 0
-527 0
-528 0
-529 0
-552 0
-553 0
-554 0
-555 0
-556 0
-557 0
-558 0
-559 0
-571 0
-572 0
-573 0
-574 0
-575 0
-576 0
-577 0
-579 0
-621 0
-622 0
-623 0
-624 0
-625 0
-626 0
-628 0
-629 0
-661 0
-662 0
-663 0
-664 0
-665 0
-666 0
-667 0
-668 0
-711 0
-712 0
-713 0
-715 0
-716 0
-717 0
-718 0
-719 0
-761 0
-762 0
-764 0
-765 0
-766 0
-767 0
-768 0
-769 0
-861 0
-862 0
-863 0
-864 0
-865 0
-867 0
-868 0
-869 0
-871 0
-872 0
-873 0
-874 0
-876 0
-877 0
-878 0
-879 0
-881 0
-882 0
-883 0
-884 0
-885 0
-886 0
-887 0
-888 0
-921 0
-922 0
-923 0
-924 0
-926 0
-927 0
-928 0
-929 0
-931 0
-932 0
-933 0
-934 0
-935 0
-936 0
-937 0
-938 0
-961 0
-962 0
-963 0
-964 0
-965 0
-966 0
-968 0
-969 0
-971 0
-973 0
-974 0
-975 0
-976 0
-977 0
-978 0
-979 0
-991 0
-992 0
-993 0
-994 0
-995 0
-997 0
-998 0
-999 0
-113 0
-123 0
-133 0
-213 0
-223 0
-233 0
-313 0
-323 0
-141 0
-161 0
-241 0
-251 0
-261 0
-351 0
-145 0
-165 0
-245 0
-255 0
-265 0
-355 0
-146 0
-166 0
-246 0
-256 0
-266 0
-356 0
-174 0
-184 0
-194 0
-274 0
-294 0
-374 0
-384 0
-178 0
-188 0
-198 0
-278 0
-298 0
-378 0
-388 0
-412 0
-422 0
-432 0
-512 0
-532 0
-612 0
-632 0
-417 0
-427 0
-437 0
-517 0
-537 0
-617 0
-637 0
-441 0
-451 0
-461 0
-541 0
-561 0
-641 0
-651 0
-449 0
-459 0
-469 0
-549 0
-569 0
-649 0
-659 0
-481 0
-581 0
-591 0
-671 0
-681 0
-691 0
-487 0
-587 0
-597 0
-677 0
-687 0
-697 0
-488 0
-588 0
-598 0
-678 0
-688 0
-698 0
-724 0
-734 0
-814 0
-824 0
-834 0
-914 0
-725 0
-735 0
-815 0
-825 0
-835 0
-915 0
-729 0
-739 0
-819 0
-829 0
-839 0
-919 0
-743 0
-753 0
-843 0
-853 0
-943 0
-953 0
-746 0
-756 0
-846 0
-856 0
-946 0
-956 0
-747 0
-757 0
-847 0
-857 0
-947 0
-957 0
-772 0
-782 0
-792 0
-892 0
-982 0
-775 0
-785 0
-795 0
-895 0
-985 0
-776 0
-786 0
-796 0
-896 0
-986 0
-779 0
-789 0
-799 0
-899 0
-989 0
-115 0
-125 0
-135 0
-175 0
-185 0
-195 0
-214 0
-224 0
-234 0
-244 0
-254 0
-264 0
-311 0
-321 0
-371 0
-381 0
-353 0
-373 0
-383 0
-316 0
-326 0
-376 0
-386 0
-318 0
-328 0
-358 0
-411 0
-421 0
-431 0
-447 0
-457 0
-467 0
-511 0
-531 0
-542 0
-562 0
-582 0
-592 0
-518 0
-538 0
-548 0
-568 0
-647 0
-657 0
-619 0
-639 0
-679 0
-689 0
-699 0
-723 0
-733 0
-773 0
-783 0
-793 0
-744 0
-754 0
-774 0
-784 0
-794 0
-845 0
-855 0
-816 0
-826 0
-836 0
-849 0
-859 0
-912 0
-942 0
-952 0
-945 0
-955 0
-916 0
-917 0
-987 0
-949 0
-959 0
-114 0
-314 0
-414 0
-514 0
-614 0
-122 0
-222 0
-322 0
-722 0
-822 0
-225 0
-325 0
-425 0
-127 0
-227 0
-327 0
-727 0
-827 0
-433 0
-533 0
-633 0
-833 0
-139 0
-239 0
-439 0
-539 0
-446 0
-546 0
-646 0
-751 0
-851 0
-951 0
-455 0
-655 0
-755 0
-163 0
-263 0
-463 0
-563 0
-466 0
-566 0
-167 0
-267 0
-567 0
-169 0
-269 0
-172 0
-272 0
-372 0
-672 0
-275 0
-375 0
-675 0
-177 0
-277 0
-377 0
-777 0
-778 0
-484 0
-584 0
-684 0
-984 0
-189 0
-389 0
-489 0
-589 0
-191 0
-291 0
-791 0
-891 0
-196 0
-296 0
-596 0
-696 0
-798 0
-898 0
379 0
771 0
797 0
547 0
599 0
745 0
894 0
674 0
-543 0
-544 0
-545 0
-593 0
-594 0
-595 0
-673 0
-676 0
-741 0
-742 0
-748 0
-749 0
-893 0
-897 0
-179 0
-199 0
-279 0
-299 0
-694 0
-781 0
-981 0
-787 0
-319 0
-329 0
-359 0
-519 0
-634 0
-644 0
-654 0
-721 0
-731 0
-737 0
-844 0
-854 0
-445 0
-645 0
-147 0
-247 0
-171 0
-271 0
-197 0
-297 0
324 0
788 0
181 0
759 0
983 0
-182 0
-183 0
-186 0
-187 0
-752 0
-758 0
-988 0
-124 0
-134 0
-111 0
-121 0
-131 0
-354 0
-728 0
-738 0
-913 0
-424 0
-259 0
-483 0
-583 0
-683 0
726 0
387 0
693 0
513 0
732 0
-382 0
-385 0
-515 0
-516 0
-692 0
-695 0
-736 0
-413 0
-423 0
-613 0
-812 0
-832 0
-317 0
-357 0
-643 0
-653 0
-813 0
-126 0
-226 0
-426 0
-132 0
-232 0
-193 0
-293 0
192 0
352 0
257 0
295 0
823 0
315 0
-252 0
-253 0
-258 0
-292 0
-312 0
-821 0
-828 0
-215 0
-235 0
-142 0
-162 0
-242 0
-262 0
-112 0
-217 0
-237 0
-415 0
-615 0
-452 0
-652 0
-852 0
268 0
858 0
212 0
842 0
221 0
453 0
462 0
-211 0
-216 0
-218 0
-219 0
-228 0
-229 0
-454 0
-456 0
-458 0
-464 0
-465 0
-468 0
-841 0
-848 0
-231 0
-148 0
-168 0
-248 0
-442 0
-642 0
-443 0
-948 0
-958 0
-238 0
-482 0
-818 0
-838 0
-658 0
164 0
236 0
648 0
656 0
954 0
565 0
682 0
918 0
941 0
249 0
-243 0
-564 0
-685 0
-686 0
-911 0
-944 0
-116 0
-136 0
-144 0
-149 0
-448 0
-276 0
-535 0
-585 0
-616 0
-636 0
-618 0
-638 0
-118 0
-418 0
-436 0
-536 0
143 0
273 0
444 0
534 0
586 0
611 0
176 0
416 0
485 0
635 0
-173 0
-419 0
-486 0
-631 0
-434 0
-435 0
-811 0
438 0
817 0
429 0
831 0
119 0
-117 0
-428 0
-837 0
-129 0
-138 0
128 0
137 0